90 362523
9 75 76 2 35 67 47 51 81 44 39 12 36 3 14 22 20 13 64 30 11 90 49 53 41 1 62 37 24 32 7 68 58 26 56 16 4 38 73 25 27 19 82 65 74 18 87 50 88 63 31 21 66 83 46 61 69 10 59 78 85 52 43 86 6 79 8 70 60 71 17 34 77 33 42 28 57 80 15 40 72 23 5 89 48 84 55 29 45 54 
